bestever    1659    in generation 0
[16, 13, 2, 12, 3, 6, 14, 15, 18, 8, 4, 5, 20, 17, 1, 10, 9, 19, 11, 7, 16, 13, 2, 12, 3, 6, 14, 15, 18, 8, 4, 5, 20, 17, 1, 10, 9, 19, 11, 7, 16, 13, 2, 12, 3, 6, 14, 15, 18, 8, 4, 5, 20, 17, 1, 10, 9, 19, 11, 7, 16, 13, 2, 12, 3, 6, 14, 15, 18, 8, 4, 5, 20, 17, 1, 10, 9, 19, 11, 7, 16, 13, 2, 12, 3, 6, 14, 15, 18, 8, 4, 5, 20, 17, 1, 10, 9, 19, 11, 7, 16, 13, 2, 12, 3, 6, 14, 15, 18, 8, 4, 5, 20, 17, 1, 10, 9, 19, 11, 7, 16, 13, 2, 12, 3, 6, 14, 15, 18, 8, 4, 5, 20, 17, 1, 10, 9, 19, 11, 7, 16, 13, 2, 12, 3, 6, 14, 15, 18, 8, 4, 5, 20, 17, 1, 10, 9, 19, 11, 7, 16, 13, 2, 12, 3, 6, 14, 15, 18, 8, 4, 5, 20, 17, 1, 10, 9, 19, 11, 7, 16, 13, 2, 12, 3, 6, 14, 15, 18, 8, 4, 5, 20, 17, 1, 10, 9, 19, 11, 7]
